12
1 0 6
2 0 6
2 1 6
3 0 7
3 1 4
3 2 7
4 0 3
4 1 7
4 2 6
4 3 3
5 0 3
5 1 3
5 2 6
5 3 7
5 4 5
6 0 3
6 1 6
6 2 5
6 3 4
6 4 6
6 5 3
7 0 4
7 1 7
7 2 3
7 3 4
7 4 6
7 5 7
7 6 7
8 0 4
8 1 5
8 2 4
8 3 5
8 4 5
8 5 3
8 6 4
8 7 5
9 0 7
9 1 6
9 2 3
9 3 6
9 4 5
9 5 7
9 6 3
9 7 6
9 8 6
10 0 7
10 1 6
10 2 5
10 3 3
10 4 3
10 5 6
10 6 4
10 7 7
10 8 5
10 9 3
11 0 4
11 1 7
11 2 5
11 3 6
11 4 5
11 5 7
11 6 3
11 7 5
11 8 3
11 9 7
11 10 6
